* #variable= 30 #constraint= 3 
+1 x1 -1 x16 +2 x2 -2 x17 +4 x3 -4 x18 +8 x4 -8 x19 +16 x5 -16 x20 +32 x6 -32 x21 +64 x7 -64 x22 +128 x8 -128 x23 +256 x9 -256 x24 +512 x10 -512 x25 +1024 x11 -1024 x26 +2048 x12 -2048 x27 +4096 x13 -4096 x28 +8192 x14 -8192 x29 +16384 x15 -16384 x30 = 0 ;
-1 x1 -1 x16 >= -1; 
+1 x1 +1 x16 >= 1; 
